\ Model idol-model
\ LP format - for model browsing. Use MPS format to capture full model detail.
\ Signature: 0x4f03a6f4924aec91
Minimize
  a_1 + a_2 + a_3 + a_4 + a_5 + a_6 + a_7 + a_8 + a_9 + a_10 + a_11 + a_12
   + a_13 + a_14 + a_15 + a_16 + a_17 + a_18 + a_19 + a_20 + a_21 + a_22
   + a_23 + a_24 + a_25 + a_26 + a_27 + a_28 + a_29 + a_30 + a_31 + a_32
   + a_33 + a_34 + a_35 + a_36 + a_38 + a_39 + a_40 + a_41 + a_42 + a_43
   + a_44 + a_45 + a_46 + a_47 + a_48 + a_49 + a_50
Subject To
 Phi: y_1 + y_2 + y_3 + y_4 + y_5 + y_6 + y_7 + y_8 + y_9 + y_10 + y_11
   + y_12 + y_13 + y_14 + y_15 + y_16 + y_17 + y_18 + y_19 + y_20 + y_21
   + y_22 + y_23 + y_24 + y_25 + y_26 + y_27 + y_28 + y_29 + y_30 + y_31
   + y_32 + y_33 + y_34 + y_35 + y_36 + y_38 + y_39 + y_40 + y_41 + y_42
   + y_43 + y_44 + y_45 + y_46 + y_47 + y_48 + y_49 + y_50 <= 3
 Lambda: x_1 + x_2 + x_3 + x_4 + x_5 + x_6 + x_7 + x_8 + x_9 + x_10 + x_11
   + x_12 + x_13 + x_14 + x_15 + x_16 + x_17 + x_18 + x_19 + x_20 + x_21
   + x_22 + x_23 + x_24 + x_25 + x_26 + x_27 + x_28 + x_29 + x_30 + x_31
   + x_32 + x_33 + x_34 + x_35 + x_36 + x_38 + x_39 + x_40 + x_41 + x_42
   + x_43 + x_44 + x_45 + x_46 + x_47 + x_48 + x_49 + x_50 <= 3
 V1: a_1 + y_1 <= 1
 V2: a_2 + y_2 <= 1
 V3: a_3 + y_3 <= 1
 V4: a_4 + y_4 <= 1
 V5: a_5 + y_5 <= 1
 V6: a_6 + y_6 <= 1
 V7: a_7 + y_7 <= 1
 V8: a_8 + y_8 <= 1
 V9: a_9 + y_9 <= 1
 V10: a_10 + y_10 <= 1
 V11: a_11 + y_11 <= 1
 V12: a_12 + y_12 <= 1
 V13: a_13 + y_13 <= 1
 V14: a_14 + y_14 <= 1
 V15: a_15 + y_15 <= 1
 V16: a_16 + y_16 <= 1
 V17: a_17 + y_17 <= 1
 V18: a_18 + y_18 <= 1
 V19: a_19 + y_19 <= 1
 V20: a_20 + y_20 <= 1
 V21: a_21 + y_21 <= 1
 V22: a_22 + y_22 <= 1
 V23: a_23 + y_23 <= 1
 V24: a_24 + y_24 <= 1
 V25: a_25 + y_25 <= 1
 V26: a_26 + y_26 <= 1
 V27: a_27 + y_27 <= 1
 V28: a_28 + y_28 <= 1
 V29: a_29 + y_29 <= 1
 V30: a_30 + y_30 <= 1
 V31: a_31 + y_31 <= 1
 V32: a_32 + y_32 <= 1
 V33: a_33 + y_33 <= 1
 V34: a_34 + y_34 <= 1
 V35: a_35 + y_35 <= 1
 V36: a_36 + y_36 <= 1
 V38: a_38 + y_38 <= 1
 V39: a_39 + y_39 <= 1
 V40: a_40 + y_40 <= 1
 V41: a_41 + y_41 <= 1
 V42: a_42 + y_42 <= 1
 V43: a_43 + y_43 <= 1
 V44: a_44 + y_44 <= 1
 V45: a_45 + y_45 <= 1
 V46: a_46 + y_46 <= 1
 V47: a_47 + y_47 <= 1
 V48: a_48 + y_48 <= 1
 V49: a_49 + y_49 <= 1
 V50: a_50 + y_50 <= 1
 A1-20: - a_1 + a_20 - x_20 <= 0
 A20-1: a_1 - a_20 - x_1 <= 0
 A1-26: - a_1 + a_26 - x_26 <= 0
 A26-1: a_1 - a_26 - x_1 <= 0
 A1-32: - a_1 + a_32 - x_32 <= 0
 A32-1: a_1 - a_32 - x_1 <= 0
 A1-45: - a_1 + a_45 - x_45 <= 0
 A45-1: a_1 - a_45 - x_1 <= 0
 A2-7: - a_2 + a_7 - x_7 <= 0
 A7-2: a_2 - a_7 - x_2 <= 0
 A2-25: - a_2 + a_25 - x_25 <= 0
 A25-2: a_2 - a_25 - x_2 <= 0
 A3-10: - a_3 + a_10 - x_10 <= 0
 A10-3: a_3 - a_10 - x_3 <= 0
 A3-35: - a_3 + a_35 - x_35 <= 0
 A35-3: a_3 - a_35 - x_3 <= 0
 A3-48: - a_3 + a_48 - x_48 <= 0
 A48-3: a_3 - a_48 - x_3 <= 0
 A4-9: - a_4 + a_9 - x_9 <= 0
 A9-4: a_4 - a_9 - x_4 <= 0
 A4-31: - a_4 + a_31 - x_31 <= 0
 A31-4: a_4 - a_31 - x_4 <= 0
 A5-10: - a_5 + a_10 - x_10 <= 0
 A10-5: a_5 - a_10 - x_5 <= 0
 A5-22: - a_5 + a_22 - x_22 <= 0
 A22-5: a_5 - a_22 - x_5 <= 0
 A5-30: - a_5 + a_30 - x_30 <= 0
 A30-5: a_5 - a_30 - x_5 <= 0
 A6-10: - a_6 + a_10 - x_10 <= 0
 A10-6: a_6 - a_10 - x_6 <= 0
 A6-13: - a_6 + a_13 - x_13 <= 0
 A13-6: a_6 - a_13 - x_6 <= 0
 A6-29: - a_6 + a_29 - x_29 <= 0
 A29-6: a_6 - a_29 - x_6 <= 0
 A7-21: - a_7 + a_21 - x_21 <= 0
 A21-7: a_7 - a_21 - x_7 <= 0
 A8-30: - a_8 + a_30 - x_30 <= 0
 A30-8: a_8 - a_30 - x_8 <= 0
 A8-42: - a_8 + a_42 - x_42 <= 0
 A42-8: a_8 - a_42 - x_8 <= 0
 A8-43: - a_8 + a_43 - x_43 <= 0
 A43-8: a_8 - a_43 - x_8 <= 0
 A8-49: - a_8 + a_49 - x_49 <= 0
 A49-8: a_8 - a_49 - x_8 <= 0
 A9-17: - a_9 + a_17 - x_17 <= 0
 A17-9: a_9 - a_17 - x_9 <= 0
 A9-20: - a_9 + a_20 - x_20 <= 0
 A20-9: a_9 - a_20 - x_9 <= 0
 A9-27: - a_9 + a_27 - x_27 <= 0
 A27-9: a_9 - a_27 - x_9 <= 0
 A9-41: - a_9 + a_41 - x_41 <= 0
 A41-9: a_9 - a_41 - x_9 <= 0
 A9-48: - a_9 + a_48 - x_48 <= 0
 A48-9: a_9 - a_48 - x_9 <= 0
 A9-50: - a_9 + a_50 - x_50 <= 0
 A50-9: a_9 - a_50 - x_9 <= 0
 A10-26: - a_10 + a_26 - x_26 <= 0
 A26-10: a_10 - a_26 - x_10 <= 0
 A10-49: - a_10 + a_49 - x_49 <= 0
 A49-10: a_10 - a_49 - x_10 <= 0
 A11-14: - a_11 + a_14 - x_14 <= 0
 A14-11: a_11 - a_14 - x_11 <= 0
 A11-22: - a_11 + a_22 - x_22 <= 0
 A22-11: a_11 - a_22 - x_11 <= 0
 A11-29: - a_11 + a_29 - x_29 <= 0
 A29-11: a_11 - a_29 - x_11 <= 0
 A11-31: - a_11 + a_31 - x_31 <= 0
 A31-11: a_11 - a_31 - x_11 <= 0
 A11-32: - a_11 + a_32 - x_32 <= 0
 A32-11: a_11 - a_32 - x_11 <= 0
 A12-14: - a_12 + a_14 - x_14 <= 0
 A14-12: a_12 - a_14 - x_12 <= 0
 A12-22: - a_12 + a_22 - x_22 <= 0
 A22-12: a_12 - a_22 - x_12 <= 0
 A12-30: - a_12 + a_30 - x_30 <= 0
 A30-12: a_12 - a_30 - x_12 <= 0
 A12-35: - a_12 + a_35 - x_35 <= 0
 A35-12: a_12 - a_35 - x_12 <= 0
 A12-39: - a_12 + a_39 - x_39 <= 0
 A39-12: a_12 - a_39 - x_12 <= 0
 A12-42: - a_12 + a_42 - x_42 <= 0
 A42-12: a_12 - a_42 - x_12 <= 0
 A14-20: - a_14 + a_20 - x_20 <= 0
 A20-14: a_14 - a_20 - x_14 <= 0
 A14-36: - a_14 + a_36 - x_36 <= 0
 A36-14: a_14 - a_36 - x_14 <= 0
 A15-22: - a_15 + a_22 - x_22 <= 0
 A22-15: a_15 - a_22 - x_15 <= 0
 A15-31: - a_15 + a_31 - x_31 <= 0
 A31-15: a_15 - a_31 - x_15 <= 0
 A15-36: - a_15 + a_36 - x_36 <= 0
 A36-15: a_15 - a_36 - x_15 <= 0
 A15-44: - a_15 + a_44 - x_44 <= 0
 A44-15: a_15 - a_44 - x_15 <= 0
 A16-33: - a_16 + a_33 - x_33 <= 0
 A33-16: a_16 - a_33 - x_16 <= 0
 A16-35: - a_16 + a_35 - x_35 <= 0
 A35-16: a_16 - a_35 - x_16 <= 0
 A16-46: - a_16 + a_46 - x_46 <= 0
 A46-16: a_16 - a_46 - x_16 <= 0
 A17-31: - a_17 + a_31 - x_31 <= 0
 A31-17: a_17 - a_31 - x_17 <= 0
 A17-49: - a_17 + a_49 - x_49 <= 0
 A49-17: a_17 - a_49 - x_17 <= 0
 A18-36: - a_18 + a_36 - x_36 <= 0
 A36-18: a_18 - a_36 - x_18 <= 0
 A18-43: - a_18 + a_43 - x_43 <= 0
 A43-18: a_18 - a_43 - x_18 <= 0
 A18-47: - a_18 + a_47 - x_47 <= 0
 A47-18: a_18 - a_47 - x_18 <= 0
 A19-26: - a_19 + a_26 - x_26 <= 0
 A26-19: a_19 - a_26 - x_19 <= 0
 A20-32: - a_20 + a_32 - x_32 <= 0
 A32-20: a_20 - a_32 - x_20 <= 0
 A20-44: - a_20 + a_44 - x_44 <= 0
 A44-20: a_20 - a_44 - x_20 <= 0
 A21-38: - a_21 + a_38 - x_38 <= 0
 A38-21: a_21 - a_38 - x_21 <= 0
 A22-24: - a_22 + a_24 - x_24 <= 0
 A24-22: a_22 - a_24 - x_22 <= 0
 A22-25: - a_22 + a_25 - x_25 <= 0
 A25-22: a_22 - a_25 - x_22 <= 0
 A23-32: - a_23 + a_32 - x_32 <= 0
 A32-23: a_23 - a_32 - x_23 <= 0
 A23-40: - a_23 + a_40 - x_40 <= 0
 A40-23: a_23 - a_40 - x_23 <= 0
 A23-44: - a_23 + a_44 - x_44 <= 0
 A44-23: a_23 - a_44 - x_23 <= 0
 A24-43: - a_24 + a_43 - x_43 <= 0
 A43-24: a_24 - a_43 - x_24 <= 0
 A25-26: - a_25 + a_26 - x_26 <= 0
 A26-25: a_25 - a_26 - x_25 <= 0
 A25-29: - a_25 + a_29 - x_29 <= 0
 A29-25: a_25 - a_29 - x_25 <= 0
 A25-35: - a_25 + a_35 - x_35 <= 0
 A35-25: a_25 - a_35 - x_25 <= 0
 A25-43: - a_25 + a_43 - x_43 <= 0
 A43-25: a_25 - a_43 - x_25 <= 0
 A26-35: - a_26 + a_35 - x_35 <= 0
 A35-26: a_26 - a_35 - x_26 <= 0
 A26-47: - a_26 + a_47 - x_47 <= 0
 A47-26: a_26 - a_47 - x_26 <= 0
 A27-30: - a_27 + a_30 - x_30 <= 0
 A30-27: a_27 - a_30 - x_27 <= 0
 A27-43: - a_27 + a_43 - x_43 <= 0
 A43-27: a_27 - a_43 - x_27 <= 0
 A27-49: - a_27 + a_49 - x_49 <= 0
 A49-27: a_27 - a_49 - x_27 <= 0
 A29-36: - a_29 + a_36 - x_36 <= 0
 A36-29: a_29 - a_36 - x_29 <= 0
 A29-42: - a_29 + a_42 - x_42 <= 0
 A42-29: a_29 - a_42 - x_29 <= 0
 A29-48: - a_29 + a_48 - x_48 <= 0
 A48-29: a_29 - a_48 - x_29 <= 0
 A30-31: - a_30 + a_31 - x_31 <= 0
 A31-30: a_30 - a_31 - x_30 <= 0
 A30-43: - a_30 + a_43 - x_43 <= 0
 A43-30: a_30 - a_43 - x_30 <= 0
 A30-50: - a_30 + a_50 - x_50 <= 0
 A50-30: a_30 - a_50 - x_30 <= 0
 A31-41: - a_31 + a_41 - x_41 <= 0
 A41-31: a_31 - a_41 - x_31 <= 0
 A31-44: - a_31 + a_44 - x_44 <= 0
 A44-31: a_31 - a_44 - x_31 <= 0
 A32-33: - a_32 + a_33 - x_33 <= 0
 A33-32: a_32 - a_33 - x_32 <= 0
 A32-36: - a_32 + a_36 - x_36 <= 0
 A36-32: a_32 - a_36 - x_32 <= 0
 A32-43: - a_32 + a_43 - x_43 <= 0
 A43-32: a_32 - a_43 - x_32 <= 0
 A32-50: - a_32 + a_50 - x_50 <= 0
 A50-32: a_32 - a_50 - x_32 <= 0
 A33-39: - a_33 + a_39 - x_39 <= 0
 A39-33: a_33 - a_39 - x_33 <= 0
 A33-41: - a_33 + a_41 - x_41 <= 0
 A41-33: a_33 - a_41 - x_33 <= 0
 A33-49: - a_33 + a_49 - x_49 <= 0
 A49-33: a_33 - a_49 - x_33 <= 0
 A35-38: - a_35 + a_38 - x_38 <= 0
 A38-35: a_35 - a_38 - x_35 <= 0
 A35-40: - a_35 + a_40 - x_40 <= 0
 A40-35: a_35 - a_40 - x_35 <= 0
 A35-48: - a_35 + a_48 - x_48 <= 0
 A48-35: a_35 - a_48 - x_35 <= 0
 A35-49: - a_35 + a_49 - x_49 <= 0
 A49-35: a_35 - a_49 - x_35 <= 0
 A39-43: - a_39 + a_43 - x_43 <= 0
 A43-39: a_39 - a_43 - x_39 <= 0
 A40-41: - a_40 + a_41 - x_41 <= 0
 A41-40: a_40 - a_41 - x_40 <= 0
 A40-46: - a_40 + a_46 - x_46 <= 0
 A46-40: a_40 - a_46 - x_40 <= 0
 A46-47: - a_46 + a_47 - x_47 <= 0
 A47-46: a_46 - a_47 - x_46 <= 0
 A46-49: - a_46 + a_49 - x_49 <= 0
 A49-46: a_46 - a_49 - x_46 <= 0
 A47-48: - a_47 + a_48 - x_48 <= 0
 A48-47: a_47 - a_48 - x_47 <= 0
 c_494: - a_1 - a_2 - a_3 - a_4 - a_5 - a_6 - a_7 - a_8 - a_9 - a_10 - a_11
   - a_12 - a_13 - a_14 - a_15 - a_16 - a_17 - a_18 - a_19 - a_20 - a_21
   - a_22 - a_23 - a_24 - a_25 - a_26 - a_27 - a_28 - a_29 - a_30 - a_31
   - a_32 - a_33 - a_34 - a_35 - a_36 - a_38 - a_39 - a_40 - a_41 - a_42
   - a_43 - a_44 - a_45 - a_46 - a_47 - a_48 - a_49 - a_50 <= 0
Bounds
Binaries
 a_1 a_2 a_3 a_4 a_5 a_6 a_7 a_8 a_9 a_10 a_11 a_12 a_13 a_14 a_15 a_16
 a_17 a_18 a_19 a_20 a_21 a_22 a_23 a_24 a_25 a_26 a_27 a_28 a_29 a_30 a_31
 a_32 a_33 a_34 a_35 a_36 a_38 a_39 a_40 a_41 a_42 a_43 a_44 a_45 a_46 a_47
 a_48 a_49 a_50 y_1 y_2 y_3 y_4 y_5 y_6 y_7 y_8 y_9 y_10 y_11 y_12 y_13
 y_14 y_15 y_16 y_17 y_18 y_19 y_20 y_21 y_22 y_23 y_24 y_25 y_26 y_27 y_28
 y_29 y_30 y_31 y_32 y_33 y_34 y_35 y_36 y_38 y_39 y_40 y_41 y_42 y_43 y_44
 y_45 y_46 y_47 y_48 y_49 y_50 x_1 x_2 x_3 x_4 x_5 x_6 x_7 x_8 x_9 x_10
 x_11 x_12 x_13 x_14 x_15 x_16 x_17 x_18 x_19 x_20 x_21 x_22 x_23 x_24 x_25
 x_26 x_27 x_28 x_29 x_30 x_31 x_32 x_33 x_34 x_35 x_36 x_38 x_39 x_40 x_41
 x_42 x_43 x_44 x_45 x_46 x_47 x_48 x_49 x_50
End
